4 5
201 225 160 104 
0 65 67 76 85 8 4 19 22 41 21 87 1 97 31 96 83 86 5 94 83 3
1 105 95 23 30 62 64 17 7 71 90 97 46 57 16 82 5 75 87 40 39 4
2 11 21 88 92 71 62 27 33 11 24 68 88 45 67 30 16 50 2 27 84 3
3 12 10 58 65 7 11 66 66 4 40 92 69 36 98 97 71 41 21 95 71 4
4 59 59 5 10 51 60 1 3 19 94 65 22 90 14 40 42 35 70 69 61 1
